
<<< setup


<<< generate

Version identifier: 12.10.0.0 | 2019-11-26 | 843d4de2ae
CPXPARAM_TimeLimit                               1200
Tried aggregator 3 times.
MIP Presolve eliminated 5128951 rows and 2889056 columns.
MIP Presolve modified 422284 coefficients.
Aggregator did 711 substitutions.
Reduced MIP has 113388 rows, 121783 columns, and 767531 nonzeros.
Reduced MIP has 121733 binaries, 0 generals, 0 SOSs, and 0 indicators.
Presolve time = 7.94 sec. (4754.80 ticks)
Found incumbent of value 7490.000000 after 10.77 sec. (5960.65 ticks)
Elapsed time = 53.20 sec. (10000.31 ticks) for 44% of probing (2614 vars fixed)
Probing fixed 2614 vars, tightened 0 bounds.
Probing time = 55.22 sec. (10120.60 ticks)
Tried aggregator 1 time.
Detecting symmetries...
MIP Presolve eliminated 2614 rows and 2614 columns.
Reduced MIP has 110774 rows, 119169 columns, and 749786 nonzeros.
Reduced MIP has 119119 binaries, 0 generals, 0 SOSs, and 0 indicators.
Presolve time = 0.98 sec. (557.25 ticks)
Probing time = 0.28 sec. (58.43 ticks)
Clique table members: 413682.
MIP emphasis: balance optimality and feasibility.
MIP search method: dynamic search.
Parallel mode: deterministic, using up to 4 threads.
Root relaxation solution time = 3.63 sec. (2019.71 ticks)

        Nodes                                         Cuts/
   Node  Left     Objective  IInf  Best Integer    Best Bound    ItCnt     Gap

*     0+    0                         7490.0000   103207.0000              --- 
      0     0    57458.0000   503     7490.0000    57458.0000     8077  667.13%
      0     0    57458.0000   503     7490.0000       Cuts: 2     8080  667.13%
      0     0    57458.0000   503     7490.0000    Cuts: 9635    11567  667.13%
      0     0    57458.0000   503     7490.0000     Cuts: 164    12906  667.13%
      0     0    57458.0000   503     7490.0000    Cuts: 6541    18492  667.13%
Heuristic still looking.
      0     2    57458.0000   144     7490.0000    57458.0000    18492  667.13%
Elapsed time = 242.91 sec. (113675.35 ticks, tree = 0.02 MB, solutions = 1)
      1     3    57458.0000   186     7490.0000    57458.0000    20315  667.13%
      2     4    57458.0000   430     7490.0000    57458.0000    28254  667.13%
      3     5    57458.0000   389     7490.0000    57458.0000    28586  667.13%
      4     4    57458.0000   185     7490.0000    57458.0000    20316  667.13%
      5     6    57458.0000   293     7490.0000    57458.0000    34507  667.13%
      6     7    57458.0000   344     7490.0000    57458.0000    36462  667.13%
      7     9    57458.0000   369     7490.0000    57458.0000    46614  667.13%
      8     8    57458.0000   356     7490.0000    57458.0000    53100  667.13%
*     9+    3                        24511.0000    57458.0000           134.42%
*     9+    3                        25325.0000    57458.0000           126.88%
      9     5    57458.0000   335    25325.0000    57458.0000    34148  126.88%
     10     3    57458.0000   162    25325.0000    57458.0000    20626  126.88%
Elapsed time = 336.77 sec. (152039.26 ticks, tree = 0.02 MB, solutions = 3)
     12    10    57458.0000   310    25325.0000    57458.0000    76386  126.88%
     13    11    57458.0000   313    25325.0000    57458.0000    77412  126.88%
     14    12    57458.0000   225    25325.0000    57458.0000    73744  126.88%
     15    16    57458.0000   303    25325.0000    57458.0000   119050  126.88%
     16    14    57458.0000   356    25325.0000    57458.0000    98710  126.88%
     17    13    57458.0000   291    25325.0000    57458.0000    78890  126.88%
     18    15    57458.0000   326    25325.0000    57458.0000   120055  126.88%
     19    17    57458.0000   341    25325.0000    57458.0000   123118  126.88%
     21    19    57458.0000   317    25325.0000    57458.0000   141714  126.88%
     24    23    57458.0000   369    25325.0000    57458.0000   171958  126.88%
Elapsed time = 392.84 sec. (173853.73 ticks, tree = 2.18 MB, solutions = 3)
     25    24    57458.0000   331    25325.0000    57458.0000   173275  126.88%
     28    21    57458.0000   320    25325.0000    57458.0000   147332  126.88%
     29    22    57458.0000   320    25325.0000    57458.0000   150409  126.88%
     30    25    57458.0000   347    25325.0000    57458.0000   182144  126.88%
     32    24    57458.0000   338    25325.0000    57458.0000   181959  126.88%
     35    28    57458.0000   348    25325.0000    57458.0000   198117  126.88%
     36    29    57458.0000   324    25325.0000    57458.0000   199934  126.88%
     37    32    57458.0000   358    25325.0000    57458.0000   215934  126.88%
     38    34    57458.0000   290    25325.0000    57458.0000   250144  126.88%
     39    38    57458.0000   332    25325.0000    57458.0000   280641  126.88%
Elapsed time = 512.98 sec. (211118.52 ticks, tree = 10.58 MB, solutions = 3)
     41    36    57458.0000   248    25325.0000    57458.0000   273117  126.88%
     42    26    57458.0000   334    25325.0000    57458.0000   202772  126.88%
     43    41    57458.0000   294    25325.0000    57458.0000   326086  126.88%
     47    49    57458.0000   378    25325.0000    57458.0000   410263  126.88%
     48    50    57458.0000   314    25325.0000    57458.0000   419788  126.88%
     50    52    57458.0000   320    25325.0000    57458.0000   421794  126.88%
     51    53    57458.0000   339    25325.0000    57458.0000   425279  126.88%
     53    55    57458.0000   376    25325.0000    57458.0000   429480  126.88%
     55    57    57458.0000   339    25325.0000    57458.0000   434786  126.88%
     57    59    57458.0000   371    25325.0000    57458.0000   437639  126.88%
Elapsed time = 889.98 sec. (263888.15 ticks, tree = 16.51 MB, solutions = 3)
     59    61    57458.0000   346    25325.0000    57458.0000   451319  126.88%
     61    42    57458.0000   212    25325.0000    57458.0000   374647  126.88%
     62    63    57458.0000   363    25325.0000    57458.0000   461823  126.88%
     63    64    57458.0000   329    25325.0000    57458.0000   462039  126.88%
     64    45    57458.0000   241    25325.0000    57458.0000   384556  126.88%
     65    46    57458.0000   391    25325.0000    57458.0000   411327  126.88%
     67    63    57458.0000   261    25325.0000    57458.0000   476596  126.88%
     69    64    57458.0000   344    25325.0000    57458.0000   471348  126.88%
     71    65    57458.0000   332    25325.0000    57458.0000   511935  126.88%
     73    67    57458.0000   344    25325.0000    57458.0000   512969  126.88%
Elapsed time = 1030.72 sec. (303127.33 ticks, tree = 18.22 MB, solutions = 3)
     75    68    57458.0000   378    25325.0000    57458.0000   523719  126.88%
     77    66    57458.0000   338    25325.0000    57458.0000   490538  126.88%
     79    68    57458.0000   235    25325.0000    57458.0000   518937  126.88%
     80    74    57458.0000   295    25325.0000    57458.0000   561612  126.88%
     81    75    57458.0000   342    25325.0000    57458.0000   567214  126.88%
     82    76    57458.0000   292    25325.0000    57458.0000   567910  126.88%
     83    66    57458.0000   356    25325.0000    57458.0000   475112  126.88%
     84    77    57458.0000   307    25325.0000    57458.0000   577236  126.88%
     89    76    57458.0000   396    25325.0000    57458.0000   563541  126.88%
     92    85    57458.0000   273    25325.0000    57458.0000   619663  126.88%
Elapsed time = 1111.63 sec. (334536.96 ticks, tree = 24.04 MB, solutions = 3)
     94    86    57458.0000   291    25325.0000    57458.0000   622131  126.88%
     95    91    57458.0000   294    25325.0000    57458.0000   651984  126.88%
     96    87    57458.0000   298    25325.0000    57458.0000   624331  126.88%
     99    88    57458.0000   288    25325.0000    57458.0000   626247  126.88%
    102    89    57458.0000   264    25325.0000    57458.0000   627760  126.88%
    104    94    57458.0000   266    25325.0000    57458.0000   658909  126.88%
    107    91    57458.0000   275    25325.0000    57458.0000   629606  126.88%
    108    81    57458.0000   287    25325.0000    57458.0000   598589  126.88%
    111    95    57458.0000   234    25325.0000    57458.0000   676667  126.88%
    115    96    57458.0000   262    25325.0000    57458.0000   678527  126.88%
Elapsed time = 1167.88 sec. (355903.31 ticks, tree = 28.81 MB, solutions = 3)
    119    98    57458.0000   257    25325.0000    57458.0000   680256  126.88%
    124   100    57458.0000   233    25325.0000    57458.0000   636685  126.88%
    128   100    57458.0000   267    25325.0000    57458.0000   681383  126.88%
    131    99    57458.0000   237    25325.0000    57458.0000   667208  126.88%
    138   121    57458.0000   216    25325.0000    57458.0000   719164  126.88%
    143   102    57458.0000   237    25325.0000    57458.0000   684553  126.88%
    145   104    57458.0000   239    25325.0000    57458.0000   686142  126.88%
    151   124    57458.0000   177    25325.0000    57458.0000   721807  126.88%
    154   126    57458.0000   219    25325.0000    57458.0000   725677  126.88%
    155   127    57458.0000   188    25325.0000    57458.0000   726437  126.88%
Elapsed time = 1200.23 sec. (369333.18 ticks, tree = 32.12 MB, solutions = 3)
    156   128    57458.0000   169    25325.0000    57458.0000   727410  126.88%

Implied bound cuts applied:  519
Flow cuts applied:  276
Mixed integer rounding cuts applied:  653
Gomory fractional cuts applied:  1

Root node processing (before b&c):
  Real time             =  238.55 sec. (112450.12 ticks)
Parallel b&c, 4 threads:
  Real time             =  962.19 sec. (258781.33 ticks)
  Sync time (average)   =  170.88 sec.
  Wait time (average)   =    0.00 sec.
                          ------------
Total (root+branch&cut) = 1200.73 sec. (371231.45 ticks)

<<< solve


OBJECTIVE: 25325

<<< post process


<<< done

